\ Model Reschedule_copy
\ LP format - for model browsing. Use MPS format to capture full model detail.
\ Signature: 0xf1dc94bea0527fed
Minimize
 
Subject To
 assign_L_31: y[31,2] = 1
 unavailL_31_2: y[31,2] = 0
Bounds
Binaries
 y[31,2]
End
